
List of user-set options:

                                    Name   Value                used
                           linear_solver = ma57                  yes
                  ma57_automatic_scaling = yes                   yes
                                max_iter = 500                   yes
                             mu_strategy = adaptive              yes
                             output_file = Reusable-Launch-Vehicle-Entry-ProblemIPOPTinfo.txt  yes
                             print_level = 5                     yes
                      print_user_options = yes                   yes
                                     tol = 1e-007                yes
This is Ipopt version 3.11.0, running with linear solver ma57.

Number of nonzeros in equality constraint Jacobian...:     6312
Number of nonzeros in inequality constraint Jacobian.:      230
Number of nonzeros in Lagrangian Hessian.............:     3094

Reallocating memory for MA57: lfact (59176)
Total number of variables............................:      694
                     variables with only lower bounds:        0
                variables with lower and upper bounds:      694
                     variables with only upper bounds:        0
Total number of equality constraints.................:      690
Total number of inequality constraints...............:      116
        inequality constraints with only lower bounds:        0
   inequality constraints with lower and upper bounds:      116
        inequality constraints with only upper bounds:        0

iter    objective    inf_pr   inf_du lg(mu)  ||d||  lg(rg) alpha_du alpha_pr  ls
   0 -1.5863183e+003 1.51e-001 1.04e-001   0.0 0.00e+000    -  0.00e+000 0.00e+000   0
   1 -1.5812981e+003 1.25e-001 2.36e+000  -1.7 2.49e+000    -  4.95e-001 1.76e-001h  1
   2 -1.5749647e+003 9.79e-002 6.53e+000  -1.0 2.37e+000    -  4.23e-001 2.19e-001h  1
   3 -1.5749766e+003 9.74e-002 3.23e+003  -1.3 1.10e+000    -  8.80e-001 5.05e-003h  1
   4 -1.5775882e+003 9.30e-002 6.77e+003  -6.9 7.05e+000    -  1.78e-001 4.47e-002h  1
   5 -1.5775519e+003 9.29e-002 8.48e+005  -0.7 5.84e+000    -  5.10e-001 1.49e-003h  1
   6 -1.5774690e+003 9.27e-002 6.35e+007  -0.5 7.31e+000  -4.0 1.62e-001 1.71e-003h  1
   7 -1.5774633e+003 9.27e-002 2.75e+012   0.7 7.06e+001    -  1.00e+000 2.07e-005h  1
   8 -1.5797710e+003 9.00e-001 2.73e+017   1.8 1.16e+002    -  6.22e-008 6.23e-003f  1
   9 -1.5798387e+003 9.00e-001 2.73e+017   3.4 2.85e+002    -  1.00e+000 1.99e-004f  3
iter    objective    inf_pr   inf_du lg(mu)  ||d||  lg(rg) alpha_du alpha_pr  ls
  10 -1.5785069e+003 8.47e-001 2.57e+017   3.4 3.03e+000    -  2.54e-001 5.90e-002h  1
  11 -1.5784944e+003 8.46e-001 2.59e+017   3.4 1.43e+000    -  1.00e+000 9.52e-004h  1
  12 -1.5784943e+003 8.46e-001 5.33e+019   3.4 1.94e+000    -  7.99e-001 3.58e-005h  1
  13 -1.5784646e+003 8.46e-001 2.56e+019   3.4 1.97e+003    -  9.96e-004 3.65e-006f  6
  14r-1.5784646e+003 8.46e-001 8.21e+002   3.4 0.00e+000    -  0.00e+000 3.28e-007R  9
  15r-1.5784652e+003 2.99e-001 2.26e+002  -2.8 3.04e+000    -  7.24e-001 8.94e-001f  1
  16 -1.5784630e+003 2.99e-001 7.56e+005   2.7 1.92e+003    -  2.12e-003 6.79e-008f  1
  17 -1.5784518e+003 2.99e-001 9.76e+009   2.7 3.43e+001    -  1.00e+000 8.24e-005h  1
  18r-1.5784518e+003 2.99e-001 5.52e+002   2.7 0.00e+000    -  0.00e+000 3.12e-007R  5
  19r-1.5784574e+003 1.64e-001 2.35e+002  -3.4 9.45e-001    -  6.25e-001 6.75e-001f  1
iter    objective    inf_pr   inf_du lg(mu)  ||d||  lg(rg) alpha_du alpha_pr  ls
  20 -1.5784573e+003 1.64e-001 4.15e+006   2.0 3.56e+002    -  9.21e-003 2.88e-008f  2
  21 -1.5784569e+003 1.64e-001 2.67e+011   2.0 7.09e+000    -  1.00e+000 1.54e-005h  1
  22r-1.5784569e+003 1.64e-001 9.11e+002   2.0 0.00e+000    -  0.00e+000 9.18e-008R  2
  23r-1.5813925e+003 1.19e-001 2.16e+003   0.6 4.65e-001    -  5.88e-001 4.69e-001f  1
  24 -1.5787188e+003 1.10e-001 9.44e+001  -0.7 2.38e+000    -  6.04e-001 7.79e-002h  1
  25 -1.5787433e+003 1.10e-001 2.93e+004  -0.5 6.16e-001    -  9.82e-001 4.84e-003h  1
  26 -1.5791550e+003 1.06e-001 7.57e+005  -0.7 1.96e+000    -  1.00e+000 2.92e-002h  1
  27 -1.5790004e+003 1.06e-001 3.23e+008   0.3 1.53e+001    -  1.00e+000 1.86e-003h  1
  28 -1.5790008e+003 1.06e-001 6.81e+012   0.1 9.48e-001    -  1.00e+000 4.35e-005h  1
  29r-1.5790008e+003 1.06e-001 9.99e+002   3.4 0.00e+000    -  0.00e+000 4.75e-007R  7
iter    objective    inf_pr   inf_du lg(mu)  ||d||  lg(rg) alpha_du alpha_pr  ls
  30r-1.5791389e+003 6.22e-002 2.05e+002  -3.0 2.31e+000    -  8.00e-001 9.76e-001f  1
  31 -1.5791373e+003 6.22e-002 3.70e+005  -0.4 3.37e+000    -  8.73e-001 3.22e-005h  1
  32 -1.5791375e+003 6.22e-002 8.75e+009   0.1 1.91e+000    -  1.00e+000 4.15e-005h  1
  33r-1.5791375e+003 6.22e-002 9.99e+002   1.1 0.00e+000    -  0.00e+000 3.56e-007R  3
  34r-1.5846769e+003 3.98e-002 2.36e+004  -0.4 2.12e+000    -  6.42e-001 1.93e-001f  1
  35 -1.5845397e+003 3.97e-002 1.12e+004   0.0 6.03e+000    -  7.90e-001 1.30e-003f  1
  36 -1.5846063e+003 3.96e-002 3.38e+006   0.4 4.12e+000    -  1.00e+000 2.41e-003h  1
  37 -1.5844509e+003 3.96e-002 2.21e+009   1.6 1.72e+001    -  1.00e+000 1.53e-003h  1
  38 -1.5844495e+003 3.96e-002 1.36e+014   2.2 1.35e+001    -  1.00e+000 1.61e-005h  1
  39 -1.6000192e+003 3.19e-002 3.26e+013   2.0 1.73e+000    -  7.61e-001 3.21e-001f  1
iter    objective    inf_pr   inf_du lg(mu)  ||d||  lg(rg) alpha_du alpha_pr  ls
  40 -1.7650218e+003 1.69e-002 6.77e+012   2.1 4.67e+000    -  7.92e-001 1.00e+000f  1
  41 -2.0900404e+003 2.13e-002 6.55e+010   3.3 2.10e+001    -  9.90e-001 4.01e-001f  1
  42r-2.0900404e+003 2.13e-002 5.76e+002   3.2 0.00e+000    -  0.00e+000 9.56e-008R  2
  43r-2.0919311e+003 7.86e-002 6.53e+003   1.4 7.68e+000    -  6.90e-001 4.31e-001f  1
  44 -2.0597361e+003 7.42e-002 1.70e+002   0.3 1.14e+001    -  8.25e-001 5.57e-002f  1
  45 -1.9981115e+003 6.53e-002 1.12e+003  -0.1 3.95e+000    -  7.14e-001 1.20e-001h  1
  46 -1.8944429e+003 4.83e-002 1.23e+004   0.1 6.10e+000    -  1.00e+000 2.61e-001H  1
  47 -1.8918439e+003 4.78e-002 2.63e+005   0.4 1.15e+001    -  1.00e+000 1.01e-002h  1
  48 -1.8898292e+003 4.75e-002 2.47e+007   0.5 4.94e+000    -  1.00e+000 6.17e-003h  1
  49 -1.8897158e+003 4.75e-002 5.58e+009   2.2 4.91e+001    -  1.00e+000 1.07e-003h  3
iter    objective    inf_pr   inf_du lg(mu)  ||d||  lg(rg) alpha_du alpha_pr  ls
  50 -1.8886561e+003 4.73e-002 1.64e+012   2.6 5.58e+000    -  1.00e+000 3.34e-003h  1
  51 -1.8886427e+003 4.73e-002 3.73e+016   2.2 5.01e+000    -  9.50e-001 4.16e-005h  1
  52 -1.8885097e+003 4.73e-002 3.65e+019   3.3 2.35e+001    -  6.96e-001 7.04e-004h  1
  53 -1.8994630e+003 1.83e-002 3.28e+017   2.4 1.52e+000    -  9.91e-001 7.14e-001h  1
  54 -1.8936040e+003 1.78e-002 2.23e+007   2.2 5.55e+000    -  1.00e+000 3.12e-002h  6
  55 -1.8935551e+003 1.78e-002 9.54e+019   2.1 1.71e+001    -  5.79e-001 2.22e-004h  1
  56r-1.8935551e+003 1.78e-002 9.98e+002   3.4 0.00e+000    -  0.00e+000 2.09e-011R  2
  57r-1.8933052e+003 1.90e-002 3.36e+001  -2.9 2.34e+000    -  9.66e-001 9.71e-001f  1
  58r-1.8990079e+003 1.85e-002 8.30e+002  -0.5 1.94e-001    -  9.66e-001 8.71e-001f  1
  59 -1.8960349e+003 1.83e-002 2.19e+003  -0.0 4.93e+000    -  8.95e-001 7.68e-003h  1
iter    objective    inf_pr   inf_du lg(mu)  ||d||  lg(rg) alpha_du alpha_pr  ls
  60 -1.8907290e+003 1.80e-002 7.43e+004   0.3 1.01e+001    -  9.96e-001 2.03e-002h  1
  61 -1.8892122e+003 1.79e-002 3.70e+006   0.6 5.72e+000    -  6.35e-001 4.25e-003h  1
  62 -1.8871255e+003 1.78e-002 1.39e+008   0.8 2.94e+000    -  2.85e-001 6.07e-003h  1
  63 -1.8870867e+003 1.78e-002 6.12e+011   2.2 2.81e+001    -  1.00e+000 1.93e-004h  1
  64 -1.8870789e+003 1.78e-002 4.22e+015   3.4 1.14e+001    -  1.97e-001 2.83e-005h  1
  65 -1.8823716e+003 1.77e-002 4.16e+013   2.0 2.08e+000    -  9.90e-001 1.25e-001h  4
  66 -1.8759466e+003 1.77e-002 2.91e+007   1.3 5.52e+000    -  1.00e+000 3.12e-002h  6
  67r-1.8759466e+003 1.77e-002 9.90e+002   1.3 0.00e+000    -  0.00e+000 2.63e-007R  2
  68r-1.8753510e+003 2.05e-002 6.10e+003  -0.6 1.40e-001    -  9.33e-001 8.04e-001f  1
  69r-1.8790192e+003 2.96e-002 4.08e+002   0.3 1.10e+000    -  8.21e-001 8.67e-001f  1
iter    objective    inf_pr   inf_du lg(mu)  ||d||  lg(rg) alpha_du alpha_pr  ls
  70r-1.7509183e+003 7.32e-002 5.36e+002  -0.1 2.45e+000    -  1.00e+000 9.99e-001f  1
  71r-1.7494788e+003 7.43e-002 1.31e+002  -0.7 8.22e-003   4.0 1.00e+000 8.83e-001f  1
  72r-1.7439414e+003 7.52e-002 3.78e+002  -1.2 1.04e-002   3.5 1.00e+000 6.45e-001f  1
  73r-1.7321794e+003 7.54e-002 5.98e+002  -1.1 1.88e-002   3.0 1.00e+000 7.24e-001f  1
  74r-1.7209016e+003 7.51e-002 4.25e+002  -0.8 3.56e-002   2.6 1.00e+000 3.56e-001f  1
  75r-1.7031849e+003 7.38e-002 2.88e+002  -0.6 7.10e-002   2.1 1.00e+000 3.82e-001f  1
  76r-1.6959539e+003 7.48e-002 6.07e+002  -0.8 1.01e+001    -  3.96e-001 1.90e-002f  1
  77r-1.6280095e+003 8.65e-002 3.43e+002  -0.8 3.82e+000    -  3.31e-001 2.41e-001f  1
  78r-1.5932926e+003 8.47e-002 4.78e+002  -1.3 4.17e+000    -  1.00e+000 2.16e-001f  1
  79r-1.5910532e+003 7.51e-002 4.03e+002  -6.9 1.01e+001    -  3.57e-002 1.32e-001f  1
iter    objective    inf_pr   inf_du lg(mu)  ||d||  lg(rg) alpha_du alpha_pr  ls
  80r-1.5894594e+003 7.25e-002 2.33e+002  -0.7 1.88e-001   1.6 1.00e+000 2.73e-001f  1
  81r-1.5755647e+003 7.22e-002 3.73e+002  -1.6 1.94e+000    -  1.00e+000 3.10e-001f  1
  82r-1.5756052e+003 6.51e-002 3.13e+002  -1.4 1.47e+000    -  1.00e+000 4.14e-001f  1
  83r-1.5718780e+003 6.33e-002 2.31e+002  -2.2 4.18e-001    -  1.00e+000 6.60e-001f  1
  84r-1.5728473e+003 5.59e-002 1.11e+001  -3.0 2.90e-001    -  1.00e+000 9.64e-001f  1
  85r-1.5749112e+003 5.34e-002 1.56e-001  -3.7 2.86e-001    -  1.00e+000 1.00e+000f  1
  86r-1.5767549e+003 6.12e-002 1.80e-002  -4.4 2.99e-001    -  9.98e-001 1.00e+000h  1
  87r-1.5784544e+003 4.65e-002 5.05e-003  -5.0 2.83e-001    -  9.98e-001 1.00e+000h  1
  88r-1.5791794e+003 4.39e-002 4.55e-004  -6.0 1.20e-001    -  1.00e+000 1.00e+000h  1
  89r-1.5791834e+003 4.39e-002 1.35e-003  -7.8 1.01e-004   1.1 1.00e+000 1.00e+000h  1
iter    objective    inf_pr   inf_du lg(mu)  ||d||  lg(rg) alpha_du alpha_pr  ls
  90r-1.5791834e+003 4.39e-002 1.73e-005  -9.0 1.78e-006   0.7 1.00e+000 1.00e+000h  1
  91r-1.5791834e+003 4.39e-002 2.12e-006  -9.0 1.39e-006   0.2 1.00e+000 1.00e+000h  1
  92r-1.5791834e+003 4.39e-002 2.12e-006  -9.0 4.18e-006  -0.3 1.00e+000 1.00e+000h  1
  93r-1.5791835e+003 4.39e-002 2.12e-006  -9.0 1.25e-005  -0.8 1.00e+000 1.00e+000h  1
  94r-1.5791836e+003 4.39e-002 2.12e-006  -9.0 3.76e-005  -1.2 1.00e+000 1.00e+000h  1
  95r-1.5791842e+003 4.39e-002 2.12e-006  -9.0 1.13e-004  -1.7 1.00e+000 1.00e+000h  1
  96r-1.5791859e+003 4.39e-002 2.11e-006  -9.0 3.36e-004  -2.2 1.00e+000 1.00e+000h  1
  97r-1.5791909e+003 4.39e-002 2.08e-006  -9.0 9.96e-004  -2.7 1.00e+000 1.00e+000h  1
  98r-1.5791974e+003 4.39e-002 3.60e-005  -9.0 2.80e-003  -3.2 1.00e+000 4.58e-001h  1
  99r-1.5791907e+003 4.37e-002 5.72e-007  -9.0 2.46e-003  -3.6 1.00e+000 1.00e+000h  1
iter    objective    inf_pr   inf_du lg(mu)  ||d||  lg(rg) alpha_du alpha_pr  ls
 100r-1.5791854e+003 4.34e-002 3.51e-007  -9.0 4.53e-003  -4.1 1.00e+000 9.98e-001h  1
 101r-1.5791758e+003 4.39e-002 3.60e-007  -9.0 4.35e-003  -4.6 1.00e+000 1.00e+000h  1
 102r-1.5792836e+003 4.30e-002 1.76e-007  -9.0 1.99e-002    -  1.00e+000 1.00e+000h  1

Number of Iterations....: 102

                                   (scaled)                 (unscaled)
Objective...............: -9.8705599910356099e+001  -1.5792895985600005e+003
Dual infeasibility......:  9.9999994136170798e+001   1.5999999061729611e+003
Constraint violation....:  4.2952853735222569e-002   4.2952853735222569e-002
Complementarity.........:  1.0000372497269948e-009   1.6000595995574196e-008
Overall NLP error.......:  9.9999994136170798e+001   1.5999999061729611e+003


Number of objective function evaluations             = 174
Number of objective gradient evaluations             = 68
Number of equality constraint evaluations            = 174
Number of inequality constraint evaluations          = 174
Number of equality constraint Jacobian evaluations   = 112
Number of inequality constraint Jacobian evaluations = 112
Number of Lagrangian Hessian evaluations             = 103
Total CPU secs in IPOPT (w/o function evaluations)   =      0.534
Total CPU secs in NLP function evaluations           =     23.324

EXIT: Converged to a point of local infeasibility. Problem may be infeasible.
